c Reduced graph for GEOM60a_0 generated by Cyril Grelier
p edge 54 301
e 1 2
e 1 6
e 1 8
e 1 9
e 1 10
e 1 22
e 1 24
e 1 25
e 1 26
e 1 29
e 1 34
e 1 39
e 1 40
e 1 44
e 1 45
e 1 47
e 1 49
e 1 53
e 2 8
e 2 9
e 2 10
e 2 22
e 2 26
e 2 29
e 2 33
e 2 34
e 2 39
e 2 40
e 2 41
e 2 45
e 2 49
e 2 53
e 2 54
e 3 19
e 3 21
e 3 30
e 3 31
e 3 32
e 3 35
e 3 36
e 3 37
e 3 43
e 3 46
e 3 50
e 4 8
e 4 9
e 4 12
e 4 23
e 4 29
e 4 34
e 4 39
e 4 45
e 4 49
e 5 13
e 5 17
e 5 18
e 5 20
e 5 38
e 5 42
e 5 43
e 5 52
e 6 10
e 6 25
e 6 29
e 6 47
e 6 48
e 6 49
e 6 53
e 7 11
e 7 14
e 7 17
e 7 18
e 7 20
e 7 27
e 7 42
e 7 51
e 8 9
e 8 12
e 8 23
e 8 26
e 8 29
e 8 34
e 8 39
e 8 40
e 8 45
e 8 49
e 8 53
e 8 54
e 9 10
e 9 12
e 9 23
e 9 25
e 9 29
e 9 34
e 9 39
e 9 45
e 9 49
e 10 25
e 10 29
e 10 34
e 10 39
e 10 40
e 10 45
e 10 49
e 10 53
e 11 14
e 11 15
e 11 17
e 11 18
e 11 20
e 11 27
e 11 33
e 11 41
e 11 42
e 11 51
e 12 23
e 12 25
e 12 29
e 12 34
e 12 39
e 12 45
e 12 49
e 13 30
e 13 38
e 13 42
e 13 43
e 13 46
e 13 50
e 13 52
e 14 17
e 14 18
e 14 20
e 14 27
e 14 42
e 14 51
e 15 17
e 15 27
e 15 33
e 15 41
e 15 51
e 15 54
e 16 28
e 16 48
e 17 18
e 17 20
e 17 26
e 17 27
e 17 33
e 17 41
e 17 42
e 17 51
e 17 54
e 18 20
e 18 27
e 18 33
e 18 38
e 18 41
e 18 42
e 18 51
e 18 52
e 19 21
e 19 24
e 19 30
e 19 31
e 19 32
e 19 35
e 19 36
e 19 37
e 19 44
e 19 47
e 19 48
e 19 50
e 20 27
e 20 38
e 20 41
e 20 42
e 20 51
e 20 52
e 21 30
e 21 31
e 21 32
e 21 35
e 21 36
e 21 37
e 21 46
e 21 50
e 22 24
e 22 26
e 22 34
e 22 40
e 22 44
e 22 47
e 22 48
e 22 53
e 23 29
e 23 34
e 23 39
e 23 45
e 23 49
e 24 40
e 24 44
e 24 47
e 24 48
e 24 53
e 25 29
e 25 49
e 25 53
e 26 27
e 26 33
e 26 34
e 26 39
e 26 40
e 26 41
e 26 45
e 26 49
e 26 53
e 26 54
e 27 33
e 27 41
e 27 51
e 27 54
e 28 37
e 28 44
e 28 47
e 28 48
e 29 34
e 29 39
e 29 45
e 29 49
e 29 53
e 30 31
e 30 32
e 30 35
e 30 36
e 30 37
e 30 43
e 30 46
e 30 50
e 30 52
e 31 32
e 31 35
e 31 36
e 31 37
e 31 43
e 31 46
e 31 50
e 32 35
e 32 36
e 32 37
e 32 43
e 32 46
e 32 50
e 33 41
e 33 51
e 33 54
e 34 39
e 34 40
e 34 45
e 34 49
e 34 53
e 34 54
e 35 36
e 35 37
e 35 46
e 35 50
e 36 37
e 36 46
e 36 50
e 38 42
e 38 43
e 38 52
e 39 40
e 39 45
e 39 49
e 39 53
e 39 54
e 40 41
e 40 44
e 40 45
e 40 47
e 40 49
e 40 53
e 41 51
e 41 54
e 42 51
e 42 52
e 43 46
e 43 50
e 43 52
e 44 47
e 44 48
e 44 53
e 45 49
e 45 53
e 45 54
e 46 50
e 47 48
e 47 53
e 48 53
e 49 53
e 50 52
